NAME : graph15
COMMENT : H Algorithm Solution by Oscar Riveros [http://twitter.com/maxtuno]
TYPE : TOUR
DIMENSION : 150
TOUR_SECTION
123
44
36
138
46
86
79
68
109
82
146
41
105
126
148
64
71
90
149
73
81
118
9
116
7
28
1
120
21
127
150
65
27
13
2
14
19
119
40
39
130
96
6
84
124
34
78
32
115
49
76
142
23
133
131
43
53
22
101
102
47
55
54
85
104
92
89
98
56
83
91
37
143
67
88
108
122
147
125
66
80
111
112
52
70
72
25
20
42
63
69
8
61
45
117
33
107
10
16
136
11
48
140
18
30
5
144
114
57
58
62
3
95
29
135
129
31
17
77
15
60
121
50
38
106
59
134
97
74
145
4
12
139
93
87
35
94
110
137
103
24
100
26
113
75
141
51
99
128
132
-1
EOF
